DIMENSION: 12
EDGE_WEIGHT_TYPE: EXPLICIT
EDGE_WEIGHT_FORMAT: FULL_MATRIX
EDGE_WEIGHT_SECTION:
32767 86 39 32767 32767 89 59 32767 100 32767 32767 32767 
86 32767 32767 49 100 32767 14 25 32767 40 32767 32767 
39 32767 32767 32767 32767 42 77 58 10 32767 61 12 
32767 49 32767 32767 100 59 32767 32767 86 86 1 32767 
32767 100 32767 100 32767 32767 65 32767 75 32767 32767 32767 
89 32767 42 59 32767 32767 51 32767 32767 32767 17 14 
59 14 77 32767 65 51 32767 32767 31 32767 100 32767 
32767 25 58 32767 32767 32767 32767 32767 82 19 32767 20 
100 32767 10 86 75 32767 31 82 32767 27 2 32767 
32767 40 32767 86 32767 32767 32767 19 27 32767 95 63 
32767 32767 61 1 32767 17 100 32767 2 95 32767 32767 
32767 32767 12 32767 32767 14 32767 20 32767 63 32767 32767 
EOF